p cnf 50 900 
1 -2 -31 0
1 -7 -10 0
1 31 -18 0
1 50 47 0
1 -40 18 0
1 8 -47 0
1 50 47 0
1 30 -46 0
1 27 -9 0
1 18 -10 0
1 -27 -9 0
1 -6 -8 0
1 -26 -25 0
1 -22 13 0
1 -9 -4 0
1 50 -45 0
1 3 39 0
1 48 16 0
1 24 -11 0
1 18 -34 0
1 -9 -22 0
1 34 -8 0
1 -12 34 0
1 -28 -47 0
1 -36 -43 0
1 9 -18 0
1 28 -9 0
1 -43 36 0
1 -8 -16 0
1 -23 -32 0
1 -16 -13 0
1 10 -30 0
1 -23 -22 0
1 39 36 0
1 44 -25 0
1 -11 1 0
1 17 -19 0
1 1 42 0
1 4 17 0
1 47 31 0
1 -2 -35 0
1 20 12 0
1 36 -20 0
1 21 -38 0
1 -7 22 0
1 14 48 0
1 -15 33 0
1 -13 37 0
1 22 -29 0
1 40 -13 0
1 32 5 0
1 -43 -36 0
1 8 14 0
1 -12 -31 0
1 -13 -16 0
1 -3 16 0
1 44 -45 0
1 7 -20 0
1 -24 32 0
1 18 30 0
1 -43 23 0
1 -3 32 0
1 -48 -17 0
1 32 -31 0
1 25 -38 0
1 7 -20 0
1 -2 12 0
1 -41 -13 0
1 -35 -37 0
1 18 17 0
1 34 43 0
1 -23 -38 0
1 -26 -1 0
1 20 50 0
1 -12 10 0
1 -23 32 0
1 -19 -23 0
1 40 46 0
1 -39 16 0
1 4 -29 0
1 29 -38 0
1 38 -24 0
1 34 10 0
1 41 37 0
1 -9 -6 0
1 1 -48 0
1 -13 9 0
1 -38 9 0
1 46 -6 0
1 -30 35 0
1 45 -33 0
1 -19 -31 0
1 -37 -41 0
1 -38 -48 0
1 7 -27 0
1 35 -11 0
1 17 -26 0
1 10 46 0
1 -29 -27 0
1 8 -34 0
1 -24 2 0
1 49 7 0
1 -34 27 0
1 -38 9 0
1 -34 -13 0
1 -8 -7 0
1 -34 -37 0
1 -20 -9 0
1 10 16 0
1 23 14 0
1 41 -12 0
1 -20 22 0
1 -34 -30 0
1 -37 44 0
1 30 -12 0
1 -21 -46 0
1 -11 -45 0
1 -9 -2 0
1 -14 -11 0
1 -32 7 0
1 37 34 0
1 -27 34 0
1 46 4 0
1 -50 48 0
1 -43 36 0
1 -38 30 0
1 -41 26 0
1 -32 21 0
1 -4 -44 0
1 -28 34 0
1 -38 -44 0
1 -41 -37 0
1 -22 39 0
1 18 35 0
1 -10 -44 0
1 15 19 0
1 -12 -50 0
1 33 35 0
1 29 3 0
1 39 4 0
1 42 38 0
1 22 -30 0
1 23 -49 0
1 17 -31 0
1 30 3 0
1 -38 31 0
1 -33 40 0
1 -43 -37 0
1 -25 -50 0
1 -29 11 0
1 -9 -48 0
1 28 43 0
1 46 -21 0
1 -1 -2 0
1 41 -34 0
1 21 -35 0
1 -34 10 0
1 21 -16 0
1 13 -3 0
1 -46 -7 0
1 28 -15 0
1 17 22 0
1 -6 -16 0
1 50 -7 0
1 -17 -9 0
1 24 -10 0
1 -12 19 0
1 -26 22 0
1 -37 21 0
1 43 -44 0
1 9 50 0
1 -7 42 0
1 1 38 0
1 48 24 0
1 43 36 0
1 8 -13 0
1 -34 -3 0
1 47 6 0
1 5 47 0
1 -39 -6 0
1 44 -42 0
1 -16 24 0
1 -9 15 0
1 28 48 0
1 -1 -6 0
1 11 12 0
1 -9 -15 0
1 -20 10 0
1 2 50 0
1 -23 -3 0
1 -18 -2 0
1 50 -7 0
1 -12 45 0
1 -7 48 0
1 12 -15 0
1 -25 -50 0
1 -49 48 0
1 1 21 0
1 23 2 0
1 8 20 0
1 -14 17 0
1 -14 -31 0
1 46 48 0
1 -47 -2 0
1 49 -42 0
1 12 -21 0
1 22 -29 0
1 -49 26 0
1 -43 42 0
1 -22 17 0
1 -14 40 0
1 41 -34 0
1 -25 -24 0
1 45 5 0
1 -34 -25 0
1 -1 -45 0
1 -37 25 0
1 42 33 0
1 22 12 0
1 45 22 0
1 45 -41 0
1 46 -26 0
1 50 -1 0
1 -46 -6 0
1 -31 43 0
1 -26 -14 0
1 25 42 0
1 -14 12 0
1 -3 -45 0
1 -20 2 0
1 2 -41 0
1 -46 -13 0
1 -6 -18 0
1 -31 24 0
1 16 -37 0
1 -48 12 0
1 -7 -33 0
1 -34 -28 0
1 -18 15 0
1 -27 -11 0
1 28 35 0
1 8 39 0
1 25 36 0
1 48 38 0
1 -20 22 0
1 -49 25 0
1 -40 21 0
1 -32 16 0
1 1 10 0
1 -49 29 0
1 -14 32 0
1 -19 -16 0
1 -45 43 0
1 31 4 0
1 -32 -26 0
1 -24 -42 0
1 -8 -5 0
1 -35 6 0
1 -2 12 0
1 27 25 0
1 -17 -47 0
1 -1 -50 0
1 -32 28 0
1 -25 -33 0
1 15 17 0
1 17 -31 0
1 16 -42 0
1 1 -26 0
1 -16 4 0
1 -3 -30 0
1 8 -41 0
1 24 -39 0
1 6 25 0
1 -5 31 0
1 23 5 0
1 30 -16 0
1 19 -12 0
1 3 -6 0
1 14 37 0
1 48 5 0
1 -13 -30 0
1 30 -47 0
1 7 39 0
1 -10 -9 0
1 -20 12 0
1 18 -31 0
1 -18 31 0
1 -36 -41 0
1 -21 15 0
1 -11 8 0
1 -46 48 0
1 -6 -29 0
1 -40 8 0
1 -38 12 0
1 43 -21 0
1 -11 -8 0
1 -22 -18 0
1 -25 17 0
1 15 38 0
1 -16 7 0
1 15 43 0
1 4 -49 0
1 19 -28 0
1 36 50 0
1 -18 -43 0
1 10 39 0
1 -26 -37 0
1 -44 41 0
1 34 -7 0
1 -5 19 0
1 46 -8 0
1 -8 12 0
1 5 27 0
1 -15 -29 0
1 -16 35 0
1 26 -18 0
1 -29 -46 0
1 -30 -9 0
1 -10 23 0
1 -11 -20 0
1 36 41 0
1 -31 42 0
1 -23 -40 0
1 -8 -50 0
1 -46 16 0
1 -24 -12 0
1 6 4 0
1 31 44 0
1 46 -26 0
1 6 -17 0
1 8 7 0
1 37 38 0
1 19 -28 0
1 -39 -8 0
1 12 -46 0
1 39 -30 0
1 5 15 0
1 -31 -5 0
1 8 -46 0
1 49 -26 0
1 50 6 0
1 45 -10 0
1 -29 11 0
1 23 -13 0
1 34 23 0
1 28 -6 0
1 -2 25 0
1 -50 -43 0
1 49 -41 0
1 -1 -26 0
1 -36 12 0
1 -24 49 0
1 22 -12 0
1 -18 23 0
1 48 -12 0
1 -5 46 0
1 -37 -4 0
1 29 -16 0
1 2 23 0
1 17 -21 0
1 -42 20 0
1 3 16 0
1 36 -9 0
1 5 22 0
1 -17 -5 0
1 -21 1 0
1 24 -48 0
1 19 43 0
1 13 15 0
1 -31 36 0
1 -44 -48 0
1 19 -15 0
1 -20 -43 0
1 44 16 0
1 14 -34 0
1 -27 -25 0
1 39 16 0
1 -1 -33 0
1 -30 -32 0
1 -47 48 0
1 40 -14 0
1 -30 -19 0
1 2 -5 0
1 30 16 0
1 -31 -20 0
1 -3 -23 0
1 -5 18 0
1 15 14 0
1 -27 25 0
1 -43 -36 0
1 41 23 0
1 38 39 0
1 26 -1 0
1 26 -42 0
1 21 -5 0
1 23 -12 0
1 -49 -17 0
1 -16 -35 0
1 -6 -46 0
1 34 45 0
1 45 10 0
1 1 11 0
1 15 -22 0
1 -34 -17 0
1 34 -24 0
1 -8 42 0
1 38 12 0
1 7 30 0
1 38 -22 0
1 36 40 0
1 -46 48 0
1 -32 22 0
1 39 -45 0
1 31 -26 0
1 -32 -38 0
1 18 50 0
1 22 23 0
1 13 14 0
1 12 -5 0
1 -26 16 0
1 -10 -11 0
1 -36 11 0
1 49 32 0
1 32 12 0
1 35 -23 0
1 36 -24 0
1 -28 24 0
1 39 -38 0
1 -48 -12 0
1 23 22 0
1 -3 -8 0
1 -20 8 0
1 31 47 0
1 21 -6 0
1 30 3 0
1 40 -21 0
1 32 5 0
1 -27 -22 0
1 30 -13 0
1 21 1 0
1 48 5 0
1 10 -30 0
1 33 19 0
1 40 23 0
1 -28 29 0
1 -1 -2 0
1 -15 -48 0
1 -48 -33 0
1 37 -3 0
1 -33 30 0
1 -49 -42 0
1 15 -45 0
1 -24 34 0
1 35 -31 0
1 -28 -33 0
1 15 20 0
1 -23 34 0
1 14 33 0
1 25 -7 0
1 -2 -9 0
1 -43 -30 0
1 -11 -3 0
1 36 -10 0
1 30 35 0
1 19 -48 0
1 -31 29 0
1 -36 -45 0
1 3 -28 0
1 7 13 0
1 15 49 0
1 -9 -19 0
1 -4 50 0
1 48 -49 0
1 -27 48 0
1 -42 -29 0
1 -6 12 0
1 -24 -12 0
1 -11 35 0
1 4 39 0
1 -39 -49 0
1 47 32 0
1 -29 48 0
1 26 -35 0
1 -47 4 0
1 16 -23 0
1 -8 49 0
1 37 -3 0
1 1 -47 0
1 29 26 0
1 -23 -6 0
1 -41 -43 0
1 46 24 0
1 -47 18 0
1 16 32 0
1 -34 -28 0
1 39 31 0
1 -2 16 0
1 -44 -36 0
1 -16 -36 0
1 -44 43 0
1 -30 40 0
1 -5 -29 0
1 7 -30 0
1 11 28 0
1 44 -47 0
1 32 -17 0
1 -2 -5 0
1 48 -22 0
1 -12 31 0
1 10 34 0
1 13 24 0
1 -2 -20 0
1 -17 -4 0
1 -20 5 0
1 10 32 0
1 -4 20 0
1 -1 22 0
1 -5 37 0
1 -11 37 0
1 7 26 0
1 29 -39 0
1 44 16 0
1 47 -35 0
1 5 43 0
1 15 46 0
1 -32 -41 0
1 -28 4 0
1 -11 -7 0
1 -27 -31 0
1 -1 -46 0
1 -5 -39 0
1 4 -44 0
1 -9 -32 0
1 -19 -24 0
1 -28 -11 0
1 -18 -33 0
1 -13 28 0
1 -24 -26 0
1 -15 37 0
1 30 -38 0
1 -19 -49 0
1 -23 -14 0
1 -25 -32 0
1 -14 -23 0
1 -1 22 0
1 48 37 0
1 -24 27 0
1 -14 -47 0
1 46 29 0
1 43 50 0
1 32 -3 0
1 25 44 0
1 -16 11 0
1 48 49 0
1 26 -5 0
1 2 -15 0
1 43 -38 0
1 37 31 0
1 34 10 0
1 -4 35 0
1 -45 -32 0
1 30 7 0
1 -12 37 0
1 2 -13 0
1 -1 -23 0
1 4 -29 0
1 -39 -18 0
1 2 -28 0
1 -9 -43 0
1 -50 3 0
1 40 -37 0
1 -50 32 0
1 -4 12 0
1 -41 -42 0
1 10 39 0
1 17 -30 0
1 22 48 0
1 -50 -8 0
1 -45 -4 0
1 -35 -14 0
1 -25 32 0
1 -24 -39 0
1 -28 -13 0
1 43 3 0
1 -50 -33 0
1 -40 -16 0
1 -19 17 0
1 -30 23 0
1 4 -37 0
1 26 13 0
1 -26 5 0
1 -7 15 0
1 48 -16 0
1 32 42 0
1 9 -49 0
1 -22 -45 0
1 31 13 0
1 26 13 0
1 18 5 0
1 -20 50 0
1 16 -33 0
1 -25 -24 0
1 23 -50 0
1 44 15 0
1 -27 22 0
1 35 39 0
1 -43 21 0
1 -20 -5 0
1 -37 32 0
1 -5 -29 0
1 28 16 0
1 -30 41 0
1 13 -26 0
1 -14 11 0
1 31 24 0
1 -28 47 0
1 -28 -18 0
1 46 21 0
1 -36 31 0
1 21 -42 0
1 -17 -29 0
1 -39 29 0
1 2 -6 0
1 -2 -5 0
1 22 21 0
1 -42 -22 0
1 -2 36 0
1 27 -12 0
1 40 -35 0
1 -14 12 0
1 -17 15 0
1 -19 -40 0
1 11 10 0
1 -31 -47 0
1 33 19 0
1 30 11 0
1 -45 26 0
1 38 43 0
1 8 -18 0
1 7 21 0
1 30 23 0
1 -20 46 0
1 14 -48 0
1 8 13 0
1 39 -10 0
1 -3 34 0
1 2 35 0
1 1 25 0
1 -43 -12 0
1 5 45 0
1 5 46 0
1 8 14 0
1 25 31 0
1 10 29 0
1 -14 18 0
1 -42 -34 0
1 45 -31 0
1 25 -24 0
1 -19 -14 0
1 -27 2 0
1 33 -14 0
1 42 19 0
1 36 -35 0
1 18 8 0
1 38 34 0
1 -7 16 0
1 29 38 0
1 40 45 0
1 8 -17 0
1 35 18 0
1 -2 25 0
1 -33 10 0
1 -43 -45 0
1 11 -23 0
1 -11 -25 0
1 19 -1 0
1 -17 37 0
1 4 32 0
1 6 -20 0
1 29 7 0
1 2 39 0
1 12 44 0
1 18 -45 0
1 45 44 0
1 30 -39 0
1 -20 34 0
1 4 -13 0
1 20 3 0
1 23 33 0
1 -34 -42 0
1 14 19 0
1 -31 33 0
1 -45 -20 0
1 -7 13 0
1 -26 -14 0
1 17 -9 0
1 42 25 0
1 16 -39 0
1 -8 -24 0
1 7 24 0
1 -43 -45 0
1 8 -12 0
1 -26 -6 0
1 -14 33 0
1 -7 37 0
1 25 -32 0
1 6 39 0
1 12 27 0
1 22 -44 0
1 6 -21 0
1 26 -41 0
1 -24 -4 0
1 40 24 0
1 -6 5 0
1 43 17 0
1 43 36 0
1 -29 -12 0
1 32 5 0
1 -46 37 0
1 -40 48 0
1 1 45 0
1 -42 30 0
1 -2 50 0
1 14 17 0
1 1 4 0
1 11 6 0
1 -24 42 0
1 22 11 0
1 30 26 0
1 24 -14 0
1 -14 -49 0
1 -15 8 0
1 -12 44 0
1 -49 32 0
1 -23 -25 0
1 36 16 0
1 42 16 0
1 -30 -34 0
1 33 -27 0
1 34 -4 0
1 47 -43 0
1 24 -46 0
1 -21 13 0
1 28 48 0
1 -14 -44 0
1 -28 26 0
1 2 -7 0
1 -11 19 0
1 12 -48 0
1 -44 20 0
1 33 20 0
1 -17 -41 0
1 34 15 0
1 40 -11 0
1 -18 -27 0
1 -46 7 0
1 -4 -36 0
1 6 -22 0
1 -41 32 0
1 -22 28 0
1 43 -12 0
1 22 -36 0
1 13 49 0
1 5 1 0
1 37 -7 0
1 -29 17 0
1 -48 28 0
1 6 -16 0
1 -27 -40 0
1 -25 -3 0
1 -1 5 0
1 5 -11 0
1 -17 -20 0
1 37 -13 0
1 41 -42 0
1 -7 -28 0
1 -17 -24 0
1 -26 -21 0
1 -25 -33 0
1 46 20 0
1 3 47 0
1 11 37 0
1 40 2 0
1 -46 43 0
1 -25 -26 0
1 4 -22 0
1 4 -49 0
1 18 15 0
1 -11 17 0
1 4 -41 0
1 42 -33 0
1 25 -44 0
1 -19 2 0
1 23 -13 0
1 -11 -14 0
1 -28 -41 0
1 8 34 0
1 24 35 0
1 18 -14 0
1 -7 -10 0
1 -12 -36 0
1 49 48 0
1 -12 -36 0
1 -26 -37 0
1 -21 -39 0
1 24 -47 0
1 -11 14 0
1 -24 -25 0
1 11 40 0
1 37 -28 0
1 -13 -7 0
1 44 15 0
1 3 -15 0
1 12 19 0
1 -32 50 0
1 -25 -30 0
1 -19 8 0
1 35 -13 0
1 -20 41 0
1 -6 7 0
1 -21 -35 0
1 4 -1 0
1 -50 41 0
1 21 -30 0
1 -37 4 0
1 17 -49 0
1 -40 -5 0
1 11 -26 0
1 10 37 0
1 -37 -16 0
1 7 -38 0
1 18 20 0
1 -24 -11 0
1 -10 -44 0
1 -49 24 0
1 -49 46 0
1 32 4 0
1 -20 4 0
1 14 -4 0
1 20 -29 0
1 -4 -46 0
1 -21 -38 0
1 -31 -5 0
1 46 -3 0
1 -25 -18 0
1 -44 -2 0
1 27 24 0
1 30 47 0
1 -36 7 0
1 3 41 0
1 34 -31 0
1 38 1 0
1 -19 5 0
1 7 -30 0
1 -4 -26 0
1 23 48 0
1 -5 4 0
1 44 -37 0
1 17 14 0
1 -24 -16 0
1 -5 -49 0
1 -8 -18 0
1 7 21 0
1 28 -15 0
1 47 -15 0
1 -29 -2 0
1 15 -4 0
1 20 48 0
1 46 2 0
1 -20 -47 0
1 -18 -43 0
1 -7 37 0
1 -2 -50 0
1 2 35 0
1 39 36 0
1 -33 -22 0
1 -24 -43 0
1 40 18 0
1 10 48 0
1 35 -27 0
1 27 -4 0
1 -39 -40 0
1 -26 49 0
1 -21 -19 0
1 -11 -17 0
1 34 -7 0
1 4 -8 0
1 34 28 0
1 -32 40 0
1 -29 32 0
1 31 34 0
1 -2 48 0
1 15 -33 0
1 -39 -19 0
1 -26 1 0
1 29 6 0
1 -45 8 0
1 -39 29 0
1 12 39 0
1 -36 -16 0
1 %
1 0
1 
